750
125 125
1 100 631
2 100 734
3 100 921
4 100 930
5 100 254
6 100 386
7 100 893
8 100 76
9 100 212
10 99 332
11 99 335
12 99 324
13 99 679
14 99 328
15 99 79
16 99 158
17 99 608
18 99 281
19 99 885
20 98 663
21 98 105
22 98 548
23 98 904
24 98 965
25 98 623
26 98 687
27 98 404
28 98 874
29 98 693
30 98 806
31 98 988
32 98 212
33 98 324
34 97 215
35 97 235
36 97 799
37 97 745
38 97 640
39 97 458
40 97 899
41 97 677
42 96 326
43 96 786
44 96 522
45 96 54
46 96 482
47 96 340
48 96 637
49 95 610
50 95 386
51 95 747
52 95 290
53 95 221
54 95 722
55 95 843
56 95 869
57 95 892
58 95 324
59 95 47
60 94 223
61 94 788
62 94 592
63 94 567
64 94 30
65 94 268
66 94 17
67 94 448
68 94 501
69 93 142
70 93 823
71 93 65
72 93 431
73 93 156
74 93 782
75 93 281
76 93 291
77 92 782
78 92 24
79 92 962
80 92 908
81 92 346
82 92 304
83 92 626
84 92 680
85 92 972
86 92 919
87 92 637
88 91 925
89 91 233
90 91 307
91 91 235
92 91 527
93 91 921
94 91 780
95 91 417
96 91 289
97 91 400
98 91 77
99 90 458
100 90 526
101 90 931
102 90 122
103 90 655
104 90 966
105 90 989
106 89 755
107 89 133
108 89 253
109 89 777
110 89 554
111 89 486
112 88 278
113 88 282
114 88 208
115 88 194
116 88 587
117 88 58
118 88 922
119 88 256
120 88 484
121 87 445
122 87 837
123 87 775
124 87 266
125 87 328
126 87 983
127 86 364
128 86 629
129 86 558
130 86 254
131 86 745
132 86 979
133 86 293
134 86 168
135 86 506
136 86 245
137 86 196
138 85 716
139 85 967
140 85 378
141 85 108
142 85 558
143 85 886
144 85 256
145 85 996
146 85 739
147 85 80
148 85 59
149 85 387
150 84 467
151 84 203
152 84 408
153 84 802
154 84 268
155 84 263
156 84 889
157 84 297
158 83 316
159 83 770
160 83 385
161 83 590
162 83 664
163 83 768
164 83 940
165 83 381
166 82 507
167 82 718
168 82 684
169 82 189
170 82 123
171 81 293
172 81 612
173 81 717
174 81 154
175 81 825
176 81 269
177 81 250
178 81 131
179 80 797
180 80 479
181 80 92
182 80 812
183 80 145
184 80 87
185 80 804
186 80 404
187 80 720
188 79 28
189 79 587
190 79 169
191 79 237
192 79 323
193 79 712
194 79 853
195 79 194
196 79 309
197 79 943
198 78 879
199 78 208
200 78 537
201 78 621
202 78 309
203 78 101
204 78 428
205 78 705
206 78 488
207 78 85
208 77 259
209 77 231
210 77 186
211 77 485
212 77 699
213 76 841
214 76 824
215 76 170
216 76 93
217 76 679
218 76 530
219 76 179
220 76 206
221 76 43
222 76 186
223 76 455
224 75 922
225 75 323
226 75 724
227 75 395
228 75 842
229 75 758
230 75 367
231 75 289
232 74 848
233 74 78
234 74 880
235 74 770
236 74 203
237 74 428
238 74 697
239 74 543
240 74 745
241 73 125
242 73 322
243 73 555
244 73 174
245 73 151
246 73 711
247 73 828
248 73 610
249 72 662
250 72 854
251 72 131
252 72 597
253 72 490
254 72 242
255 72 445
256 71 364
257 71 178
258 71 291
259 71 801
260 71 334
261 71 815
262 70 459
263 70 633
264 70 594
265 70 360
266 70 897
267 70 949
268 70 474
269 70 865
270 69 519
271 69 320
272 69 293
273 69 301
274 69 91
275 69 317
276 69 990
277 69 103
278 69 484
279 68 613
280 68 490
281 68 544
282 68 89
283 68 492
284 68 73
285 68 904
286 68 519
287 68 132
288 68 281
289 67 354
290 67 619
291 67 314
292 67 866
293 67 788
294 67 622
295 67 978
296 67 281
297 67 275
298 67 444
299 66 877
300 66 968
301 66 876
302 66 477
303 66 111
304 66 747
305 66 521
306 66 523
307 65 259
308 65 593
309 65 441
310 65 232
311 65 8
312 65 793
313 65 252
314 65 362
315 65 299
316 64 653
317 64 825
318 64 677
319 64 457
320 64 346
321 64 420
322 63 522
323 63 648
324 63 142
325 63 932
326 63 305
327 63 28
328 63 127
329 62 245
330 62 648
331 62 516
332 62 25
333 62 946
334 62 202
335 62 729
336 62 466
337 61 202
338 61 680
339 61 133
340 61 342
341 61 176
342 61 980
343 61 767
344 60 761
345 60 130
346 60 82
347 60 476
348 60 910
349 60 827
350 60 206
351 60 143
352 59 343
353 59 148
354 59 268
355 59 318
356 59 452
357 59 764
358 59 798
359 59 566
360 58 204
361 58 0
362 58 212
363 58 475
364 58 390
365 58 357
366 58 364
367 58 441
368 58 296
369 58 587
370 57 905
371 57 39
372 57 690
373 57 780
374 57 407
375 56 933
376 56 612
377 56 80
378 56 638
379 56 145
380 56 529
381 56 631
382 56 960
383 56 896
384 56 782
385 56 324
386 55 496
387 55 938
388 55 23
389 55 552
390 55 445
391 55 113
392 54 109
393 54 852
394 54 922
395 54 674
396 53 768
397 53 465
398 53 252
399 53 584
400 53 974
401 53 475
402 53 439
403 53 811
404 53 420
405 53 926
406 53 774
407 53 205
408 53 133
409 53 237
410 52 649
411 52 447
412 52 164
413 52 143
414 52 409
415 52 256
416 52 839
417 52 885
418 52 854
419 52 900
420 51 376
421 51 466
422 51 227
423 51 427
424 51 406
425 51 178
426 51 633
427 51 912
428 51 828
429 51 318
430 50 291
431 50 903
432 50 240
433 50 114
434 50 480
435 49 357
436 49 297
437 49 680
438 49 292
439 49 168
440 49 565
441 49 144
442 49 447
443 49 745
444 49 848
445 48 544
446 48 267
447 48 133
448 48 663
449 48 79
450 48 917
451 48 384
452 48 393
453 48 795
454 48 998
455 48 113
456 48 508
457 47 141
458 47 298
459 47 214
460 47 615
461 47 600
462 47 640
463 47 631
464 47 178
465 47 431
466 46 836
467 46 646
468 46 438
469 46 959
470 46 610
471 45 523
472 45 104
473 45 36
474 45 207
475 45 315
476 45 371
477 45 40
478 45 910
479 45 230
480 45 542
481 45 398
482 45 499
483 44 516
484 44 33
485 44 793
486 44 882
487 44 564
488 44 276
489 44 91
490 44 780
491 43 524
492 43 55
493 43 279
494 43 918
495 43 447
496 42 320
497 42 472
498 42 208
499 42 1
500 42 547
501 42 185
502 42 400
503 42 808
504 42 666
505 42 479
506 41 920
507 41 737
508 41 167
509 41 945
510 41 100
511 41 364
512 41 76
513 40 245
514 40 237
515 40 363
516 40 499
517 39 940
518 39 902
519 39 467
520 39 428
521 39 391
522 39 367
523 38 134
524 38 502
525 38 367
526 38 110
527 38 48
528 37 320
529 37 952
530 37 377
531 37 818
532 37 0
533 37 190
534 37 768
535 37 428
536 37 10
537 37 768
538 36 423
539 36 623
540 36 263
541 36 464
542 35 694
543 35 189
544 35 526
545 35 371
546 35 384
547 34 435
548 34 776
549 34 734
550 34 198
551 34 618
552 34 932
553 34 441
554 34 448
555 34 71
556 34 173
557 34 569
558 33 189
559 33 48
560 33 116
561 33 919
562 33 74
563 33 104
564 33 204
565 32 195
566 32 499
567 32 298
568 32 331
569 32 463
570 32 267
571 32 404
572 32 890
573 32 447
574 32 757
575 32 769
576 32 715
577 31 932
578 31 740
579 31 186
580 31 542
581 31 132
582 31 469
583 31 530
584 31 868
585 31 218
586 30 664
587 30 791
588 30 719
589 30 693
590 30 928
591 30 944
592 30 740
593 30 734
594 30 571
595 30 832
596 29 791
597 29 60
598 29 87
599 29 464
600 29 747
601 29 780
602 29 671
603 29 481
604 29 178
605 28 706
606 28 386
607 28 482
608 28 879
609 28 110
610 28 856
611 28 652
612 28 335
613 28 502
614 28 170
615 28 265
616 28 973
617 28 762
618 27 847
619 27 177
620 27 600
621 27 159
622 27 609
623 27 664
624 27 835
625 27 650
626 27 745
627 27 723
628 27 956
629 27 215
630 26 804
631 26 654
632 26 472
633 26 603
634 26 900
635 26 782
636 25 36
637 25 85
638 25 74
639 25 248
640 25 146
641 25 433
642 25 298
643 24 894
644 24 209
645 24 671
646 24 424
647 24 252
648 24 297
649 24 210
650 24 471
651 24 782
652 24 954
653 24 974
654 24 225
655 23 13
656 23 200
657 23 235
658 23 290
659 23 193
660 23 686
661 23 312
662 23 239
663 23 832
664 22 870
665 22 690
666 22 549
667 22 74
668 22 93
669 22 707
670 21 871
671 21 341
672 21 715
673 21 90
674 21 149
675 21 17
676 21 778
677 21 21
678 21 160
679 21 11
680 21 533
681 21 398
682 20 914
683 20 236
684 20 597
685 20 350
686 20 534
687 20 709
688 20 157
689 20 862
690 20 20
691 19 203
692 19 365
693 19 288
694 19 742
695 19 733
696 19 193
697 19 76
698 19 340
699 19 774
700 18 677
701 18 559
702 18 695
703 18 804
704 17 805
705 17 222
706 17 474
707 17 323
708 17 506
709 17 688
710 17 158
711 17 70
712 17 145
713 16 711
714 16 413
715 16 466
716 16 575
717 16 22
718 15 180
719 15 885
720 15 284
721 15 463
722 15 496
723 15 201
724 15 976
725 15 741
726 15 930
727 14 989
728 14 257
729 14 478
730 14 197
731 14 670
732 14 771
733 14 63
734 14 22
735 14 76
736 14 149
737 13 967
738 13 223
739 13 245
740 13 826
741 13 335
742 13 955
743 12 631
744 12 254
745 12 294
746 12 116
747 12 627
748 12 961
749 12 770
750 12 560
